p edge 49 338
e 1 2
e 1 8
e 1 10
e 1 21
e 1 26
e 1 34
e 1 36
e 1 41
e 1 43
e 1 45
e 2 3
e 2 9
e 2 11
e 2 17
e 2 19
e 2 26
e 2 28
e 2 30
e 2 32
e 2 35
e 2 36
e 2 37
e 2 42
e 2 45
e 2 46
e 2 49
e 3 6
e 3 13
e 3 20
e 3 21
e 3 22
e 3 24
e 3 30
e 3 35
e 3 39
e 3 45
e 4 7
e 4 10
e 4 14
e 4 15
e 4 19
e 4 23
e 4 24
e 4 25
e 4 28
e 4 31
e 4 32
e 4 37
e 4 38
e 4 42
e 4 47
e 4 49
e 5 6
e 5 7
e 5 8
e 5 9
e 5 10
e 5 11
e 5 15
e 5 16
e 5 18
e 5 21
e 5 24
e 5 28
e 5 29
e 5 32
e 5 33
e 5 36
e 5 44
e 5 45
e 6 8
e 6 9
e 6 17
e 6 21
e 6 22
e 6 29
e 6 31
e 6 32
e 6 33
e 6 35
e 6 36
e 6 37
e 6 38
e 6 41
e 6 45
e 6 47
e 7 9
e 7 13
e 7 17
e 7 18
e 7 24
e 7 26
e 7 38
e 7 40
e 7 42
e 7 44
e 7 45
e 7 46
e 8 10
e 8 17
e 8 26
e 8 30
e 8 32
e 8 34
e 8 37
e 8 41
e 8 43
e 8 45
e 8 46
e 8 49
e 9 10
e 9 12
e 9 13
e 9 22
e 9 23
e 9 26
e 9 27
e 9 35
e 9 36
e 9 38
e 9 39
e 9 41
e 9 43
e 9 44
e 9 48
e 10 17
e 10 22
e 10 26
e 10 28
e 10 33
e 10 37
e 10 42
e 10 45
e 10 48
e 11 12
e 11 15
e 11 16
e 11 17
e 11 18
e 11 21
e 11 31
e 11 32
e 11 34
e 11 35
e 11 36
e 11 37
e 11 43
e 11 44
e 11 48
e 12 15
e 12 17
e 12 20
e 12 21
e 12 28
e 12 29
e 12 30
e 12 31
e 12 41
e 12 48
e 13 17
e 13 18
e 13 33
e 13 37
e 13 39
e 13 47
e 13 48
e 14 16
e 14 20
e 14 21
e 14 26
e 14 27
e 14 44
e 15 19
e 15 24
e 15 25
e 15 26
e 15 27
e 15 28
e 15 44
e 15 46
e 16 17
e 16 18
e 16 25
e 16 28
e 16 35
e 16 37
e 16 39
e 16 40
e 16 48
e 17 18
e 17 19
e 17 22
e 17 27
e 17 31
e 17 39
e 17 40
e 17 45
e 18 21
e 18 22
e 18 29
e 18 31
e 18 32
e 18 37
e 18 39
e 18 41
e 18 42
e 18 43
e 18 48
e 19 28
e 19 29
e 19 33
e 19 42
e 19 43
e 19 45
e 19 48
e 20 24
e 20 26
e 20 27
e 20 28
e 20 29
e 20 35
e 20 41
e 20 45
e 20 48
e 21 24
e 21 33
e 21 41
e 21 47
e 22 26
e 22 29
e 22 31
e 22 32
e 22 35
e 22 39
e 22 41
e 22 42
e 22 43
e 23 24
e 23 26
e 23 38
e 23 39
e 23 46
e 23 49
e 24 33
e 24 34
e 24 46
e 25 26
e 25 27
e 25 28
e 25 29
e 25 30
e 25 31
e 25 33
e 25 38
e 25 46
e 25 48
e 25 49
e 26 29
e 26 35
e 26 36
e 26 43
e 26 44
e 26 48
e 26 49
e 27 32
e 27 34
e 27 35
e 27 37
e 27 38
e 27 40
e 27 42
e 27 44
e 27 45
e 27 48
e 28 37
e 28 40
e 28 42
e 29 34
e 29 37
e 29 38
e 29 42
e 29 43
e 29 45
e 29 48
e 29 49
e 30 33
e 30 34
e 30 36
e 30 37
e 30 44
e 30 49
e 31 34
e 31 38
e 31 41
e 31 42
e 31 45
e 32 33
e 32 37
e 32 38
e 32 40
e 32 41
e 32 42
e 32 44
e 32 45
e 33 35
e 33 39
e 33 40
e 33 44
e 33 46
e 34 35
e 34 43
e 34 47
e 35 38
e 35 39
e 35 48
e 35 49
e 36 38
e 36 44
e 37 41
e 37 43
e 38 41
e 38 44
e 38 45
e 38 47
e 38 49
e 39 41
e 39 48
e 40 49
e 41 48
e 43 45
e 43 47
e 44 47
e 44 49
e 45 47
e 46 49
e 47 48
e 47 49
e 48 49
